results/x-10M/X-n106-k14.vrp_seed-5.out
26362	12693
