results/x-10M/X-n106-k14.vrp_seed-5.vrp.sol
Route #1: 52 92 102 24 90 26 62
Route #2: 5 44 15 76 51 100 45 96
Route #3: 22 33
Route #4: 68 95 38 65 80 61 47 25
Route #5: 7 75 84 9 12 104 1
Route #6: 28 66 46 79 37 27 19 78
Route #7: 53 103 101 93 97 43 87 60
Route #8: 55 98 4 70 6 81 50 39
Route #9: 86 18 41 10 16 20 56
Route #10: 67 48 8 36 91 88 58 14
Route #11: 29 72 34 11 99 49 71
Route #12: 54 77 83 2 17 69 105 64 94 82
Route #13: 59 89 30 42 23 3 32 73 35
Route #14: 74 21 85 13 40 31 63 57
Cost 26362.000000